TCS_Benchmarks/redos_fix/corpus3_output_distinct_2416_2415_0_0.smt2
(set-logic QF_S)
(declare-const x String)
(assert (str.in.re x (re.inter (re.* (re.union (re.range "\u{00}" "\u{08}") (re.range "\u{0e}" "\u{1f}") (re.range "\u{21}" "\u{84}") (re.range "\u{86}" "\u{9f}") (re.range "\u{a1}" "\u{ff}")) )  (re.++ (re.* (re.union (re.range "\u{00}" "\u{08}") (re.range "\u{0e}" "\u{1f}") (re.range "\u{21}" "\u{84}") (re.range "\u{86}" "\u{9f}") (re.range "\u{a1}" "\u{ff}")) ) (re.++  (re.++ (re.union (re.range "\u{00}" "\u{09}") (re.range "\u{0b}" "\u{0c}") (re.range "\u{0e}" "\u{84}") (re.range "\u{86}" "\u{ff}")) (re.++  (str.to.re "\u{79}") (re.++  (str.to.re "\u{6f}") (re.++  (str.to.re "\u{75}") (re.++  (str.to.re "\u{74}") (re.++  (str.to.re "\u{75}") (re.++  (re.union  (re.++  (str.to.re "\u{2e}") (re.++  (str.to.re "\u{62}")  (str.to.re "\u{65}")))  (re.++  (str.to.re "\u{62}") (re.++  (str.to.re "\u{65}") (re.++  (str.to.re "\u{2e}") (re.++  (str.to.re "\u{63}") (re.++  (str.to.re "\u{6f}")  (str.to.re "\u{6d}"))))))) (re.++  (str.to.re "\u{2f}") (re.++  (str.to.re "\u{77}") (re.++  (str.to.re "\u{61}") (re.++  (str.to.re "\u{74}") (re.++  (str.to.re "\u{63}")  (str.to.re "\u{68}"))))))))))))) (re.* (re.union (re.range "\u{00}" "\u{08}") (re.range "\u{0e}" "\u{1f}") (re.range "\u{21}" "\u{84}") (re.range "\u{86}" "\u{9f}") (re.range "\u{a1}" "\u{ff}")) ))) (re.* (re.union (re.range "\u{00}" "\u{08}") (re.range "\u{0e}" "\u{1f}") (re.range "\u{21}" "\u{84}") (re.range "\u{86}" "\u{9f}") (re.range "\u{a1}" "\u{ff}")) ) )))
(check-sat)
(get-model)