TCS_Benchmarks/redos_fix/corpus3_output_distinct_2416_2415_0_0.txt
\S*
(\S*)(.youtu(\.be|be\.com)\/watch)(\S*)
\S*